90 4005
1 2 236
1 3 34
1 4 211
1 5 94
1 6 241
1 7 155
1 8 69
1 9 148
1 10 151
1 11 164
1 12 130
1 13 15
1 14 102
1 15 167
1 16 11
1 17 24
1 18 3
1 19 204
1 20 13
1 21 150
1 22 205
1 23 159
1 24 212
1 25 254
1 26 252
1 27 208
1 28 250
1 29 66
1 30 104
1 31 257
1 32 193
1 33 20
1 34 209
1 35 59
1 36 220
1 37 84
1 38 187
1 39 44
1 40 107
1 41 121
1 42 206
1 43 132
1 44 115
1 45 4
1 46 184
1 47 16
1 48 4
1 49 179
1 50 170
1 51 232
1 52 67
1 53 132
1 54 11
1 55 228
1 56 237
1 57 154
1 58 220
1 59 148
1 60 9
1 61 212
1 62 171
1 63 92
1 64 177
1 65 216
1 66 162
1 67 55
1 68 262
1 69 18
1 70 230
1 71 92
1 72 234
1 73 131
1 74 233
1 75 220
1 76 71
1 77 205
1 78 95
1 79 17
1 80 65
1 81 123
1 82 92
1 83 193
1 84 0
1 85 238
1 86 234
1 87 52
1 88 59
1 89 77
1 90 179
2 3 13
2 4 149
2 5 69
2 6 213
2 7 146
2 8 174
2 9 251
2 10 229
2 11 262
2 12 217
2 13 125
2 14 224
2 15 186
2 16 68
2 17 144
2 18 83
2 19 197
2 20 234
2 21 88
2 22 159
2 23 143
2 24 247
2 25 187
2 26 83
2 27 234
2 28 118
2 29 58
2 30 163
2 31 266
2 32 147
2 33 253
2 34 234
2 35 214
2 36 199
2 37 240
2 38 17
2 39 239
2 40 231
2 41 92
2 42 221
2 43 164
2 44 74
2 45 66
2 46 71
2 47 57
2 48 76
2 49 267
2 50 220
2 51 51
2 52 139
2 53 140
2 54 48
2 55 7
2 56 161
2 57 111
2 58 153
2 59 14
2 60 93
2 61 173
2 62 154
2 63 62
2 64 206
2 65 50
2 66 263
2 67 18
2 68 13
2 69 49
2 70 99
2 71 113
2 72 3
2 73 43
2 74 200
2 75 105
2 76 159
2 77 24
2 78 230
2 79 234
2 80 228
2 81 186
2 82 105
2 83 81
2 84 182
2 85 252
2 86 3
2 87 95
2 88 150
2 89 241
2 90 170
3 4 18
3 5 99
3 6 149
3 7 178
3 8 48
3 9 80
3 10 118
3 11 227
3 12 236
3 13 249
3 14 20
3 15 55
3 16 160
3 17 8
3 18 261
3 19 262
3 20 215
3 21 136
3 22 190
3 23 153
3 24 145
3 25 184
3 26 84
3 27 223
3 28 234
3 29 39
3 30 169
3 31 204
3 32 79
3 33 233
3 34 79
3 35 24
3 36 124
3 37 148
3 38 244
3 39 243
3 40 198
3 41 35
3 42 209
3 43 159
3 44 40
3 45 145
3 46 45
3 47 77
3 48 249
3 49 84
3 50 267
3 51 232
3 52 264
3 53 243
3 54 155
3 55 195
3 56 177
3 57 249
3 58 23
3 59 255
3 60 206
3 61 67
3 62 218
3 63 59
3 64 143
3 65 119
3 66 167
3 67 177
3 68 258
3 69 226
3 70 139
3 71 125
3 72 227
3 73 55
3 74 190
3 75 184
3 76 257
3 77 179
3 78 133
3 79 65
3 80 189
3 81 91
3 82 209
3 83 8
3 84 207
3 85 99
3 86 143
3 87 198
3 88 44
3 89 202
3 90 23
4 5 189
4 6 135
4 7 54
4 8 30
4 9 174
4 10 5
4 11 178
4 12 45
4 13 0
4 14 238
4 15 117
4 16 40
4 17 105
4 18 92
4 19 24
4 20 17
4 21 39
4 22 22
4 23 206
4 24 150
4 25 121
4 26 192
4 27 44
4 28 242
4 29 8
4 30 90
4 31 163
4 32 42
4 33 225
4 34 100
4 35 202
4 36 211
4 37 44
4 38 256
4 39 31
4 40 51
4 41 122
4 42 113
4 43 18
4 44 20
4 45 232
4 46 138
4 47 266
4 48 261
4 49 96
4 50 76
4 51 134
4 52 227
4 53 180
4 54 23
4 55 177
4 56 85
4 57 183
4 58 100
4 59 229
4 60 123
4 61 158
4 62 96
4 63 50
4 64 230
4 65 12
4 66 228
4 67 167
4 68 56
4 69 246
4 70 207
4 71 1
4 72 26
4 73 190
4 74 32
4 75 133
4 76 94
4 77 104
4 78 28
4 79 23
4 80 109
4 81 231
4 82 220
4 83 23
4 84 106
4 85 183
4 86 118
4 87 43
4 88 15
4 89 28
4 90 5
5 6 112
5 7 103
5 8 237
5 9 231
5 10 34
5 11 143
5 12 18
5 13 194
5 14 116
5 15 226
5 16 143
5 17 64
5 18 58
5 19 210
5 20 88
5 21 233
5 22 34
5 23 82
5 24 134
5 25 259
5 26 182
5 27 156
5 28 33
5 29 60
5 30 101
5 31 208
5 32 151
5 33 219
5 34 42
5 35 21
5 36 3
5 37 243
5 38 131
5 39 25
5 40 55
5 41 165
5 42 252
5 43 122
5 44 24
5 45 120
5 46 179
5 47 130
5 48 31
5 49 182
5 50 188
5 51 32
5 52 48
5 53 171
5 54 140
5 55 248
5 56 62
5 57 114
5 58 226
5 59 116
5 60 95
5 61 151
5 62 91
5 63 48
5 64 1
5 65 29
5 66 47
5 67 43
5 68 97
5 69 93
5 70 246
5 71 89
5 72 32
5 73 168
5 74 208
5 75 28
5 76 254
5 77 248
5 78 23
5 79 132
5 80 140
5 81 218
5 82 164
5 83 258
5 84 250
5 85 7
5 86 127
5 87 17
5 88 23
5 89 157
5 90 141
6 7 7
6 8 212
6 9 173
6 10 187
6 11 112
6 12 213
6 13 231
6 14 202
6 15 116
6 16 161
6 17 128
6 18 219
6 19 148
6 20 103
6 21 103
6 22 122
6 23 55
6 24 73
6 25 111
6 26 235
6 27 43
6 28 267
6 29 56
6 30 213
6 31 174
6 32 225
6 33 156
6 34 60
6 35 190
6 36 266
6 37 7
6 38 179
6 39 56
6 40 259
6 41 171
6 42 233
6 43 89
6 44 19
6 45 58
6 46 81
6 47 162
6 48 162
6 49 90
6 50 260
6 51 83
6 52 16
6 53 52
6 54 175
6 55 243
6 56 166
6 57 235
6 58 155
6 59 22
6 60 148
6 61 177
6 62 70
6 63 132
6 64 78
6 65 92
6 66 218
6 67 7
6 68 234
6 69 97
6 70 149
6 71 32
6 72 223
6 73 259
6 74 67
6 75 13
6 76 49
6 77 193
6 78 37
6 79 220
6 80 66
6 81 118
6 82 182
6 83 22
6 84 231
6 85 120
6 86 15
6 87 152
6 88 72
6 89 236
6 90 3
7 8 208
7 9 55
7 10 246
7 11 212
7 12 133
7 13 36
7 14 218
7 15 105
7 16 247
7 17 99
7 18 37
7 19 105
7 20 166
7 21 49
7 22 56
7 23 129
7 24 265
7 25 93
7 26 29
7 27 161
7 28 167
7 29 16
7 30 261
7 31 53
7 32 240
7 33 143
7 34 22
7 35 240
7 36 215
7 37 112
7 38 222
7 39 33
7 40 256
7 41 94
7 42 31
7 43 235
7 44 28
7 45 88
7 46 130
7 47 116
7 48 139
7 49 97
7 50 248
7 51 13
7 52 171
7 53 80
7 54 237
7 55 105
7 56 156
7 57 46
7 58 40
7 59 170
7 60 110
7 61 71
7 62 0
7 63 178
7 64 74
7 65 195
7 66 69
7 67 221
7 68 137
7 69 52
7 70 201
7 71 165
7 72 50
7 73 136
7 74 216
7 75 82
7 76 18
7 77 127
7 78 115
7 79 160
7 80 229
7 81 221
7 82 25
7 83 257
7 84 121
7 85 265
7 86 183
7 87 200
7 88 70
7 89 162
7 90 47
8 9 59
8 10 264
8 11 186
8 12 1
8 13 118
8 14 3
8 15 123
8 16 175
8 17 110
8 18 250
8 19 103
8 20 58
8 21 96
8 22 48
8 23 46
8 24 99
8 25 28
8 26 120
8 27 112
8 28 145
8 29 68
8 30 75
8 31 32
8 32 216
8 33 84
8 34 101
8 35 204
8 36 79
8 37 0
8 38 113
8 39 68
8 40 78
8 41 165
8 42 258
8 43 255
8 44 13
8 45 262
8 46 249
8 47 171
8 48 94
8 49 121
8 50 161
8 51 262
8 52 157
8 53 208
8 54 119
8 55 154
8 56 55
8 57 253
8 58 200
8 59 101
8 60 209
8 61 91
8 62 102
8 63 182
8 64 5
8 65 37
8 66 68
8 67 15
8 68 91
8 69 27
8 70 150
8 71 207
8 72 202
8 73 164
8 74 214
8 75 131
8 76 172
8 77 82
8 78 170
8 79 76
8 80 29
8 81 238
8 82 196
8 83 248
8 84 120
8 85 170
8 86 106
8 87 50
8 88 244
8 89 117
8 90 38
9 10 88
9 11 78
9 12 90
9 13 237
9 14 180
9 15 208
9 16 257
9 17 126
9 18 68
9 19 255
9 20 168
9 21 145
9 22 194
9 23 194
9 24 229
9 25 43
9 26 245
9 27 115
9 28 100
9 29 71
9 30 122
9 31 239
9 32 52
9 33 129
9 34 82
9 35 134
9 36 159
9 37 131
9 38 94
9 39 161
9 40 130
9 41 176
9 42 212
9 43 83
9 44 61
9 45 161
9 46 7
9 47 131
9 48 2
9 49 104
9 50 20
9 51 233
9 52 214
9 53 230
9 54 204
9 55 266
9 56 168
9 57 101
9 58 251
9 59 243
9 60 32
9 61 122
9 62 58
9 63 127
9 64 124
9 65 17
9 66 209
9 67 187
9 68 241
9 69 193
9 70 229
9 71 65
9 72 178
9 73 256
9 74 102
9 75 128
9 76 68
9 77 12
9 78 97
9 79 41
9 80 184
9 81 228
9 82 77
9 83 154
9 84 11
9 85 248
9 86 193
9 87 202
9 88 206
9 89 223
9 90 131
10 11 56
10 12 44
10 13 70
10 14 32
10 15 191
10 16 84
10 17 113
10 18 211
10 19 2
10 20 51
10 21 61
10 22 104
10 23 29
10 24 8
10 25 123
10 26 257
10 27 214
10 28 60
10 29 139
10 30 158
10 31 44
10 32 248
10 33 191
10 34 264
10 35 116
10 36 26
10 37 261
10 38 108
10 39 73
10 40 83
10 41 104
10 42 57
10 43 54
10 44 256
10 45 122
10 46 231
10 47 42
10 48 62
10 49 85
10 50 102
10 51 249
10 52 2
10 53 104
10 54 27
10 55 175
10 56 33
10 57 58
10 58 143
10 59 113
10 60 66
10 61 77
10 62 229
10 63 25
10 64 160
10 65 260
10 66 115
10 67 192
10 68 156
10 69 96
10 70 82
10 71 130
10 72 9
10 73 22
10 74 163
10 75 176
10 76 196
10 77 36
10 78 123
10 79 17
10 80 16
10 81 225
10 82 188
10 83 214
10 84 5
10 85 64
10 86 167
10 87 13
10 88 89
10 89 79
10 90 107
11 12 58
11 13 219
11 14 39
11 15 166
11 16 8
11 17 147
11 18 98
11 19 198
11 20 233
11 21 154
11 22 71
11 23 8
11 24 110
11 25 262
11 26 34
11 27 11
11 28 191
11 29 266
11 30 81
11 31 252
11 32 252
11 33 99
11 34 93
11 35 180
11 36 206
11 37 17
11 38 128
11 39 185
11 40 266
11 41 9
11 42 232
11 43 229
11 44 181
11 45 81
11 46 150
11 47 115
11 48 93
11 49 55
11 50 40
11 51 207
11 52 61
11 53 8
11 54 6
11 55 141
11 56 224
11 57 44
11 58 148
11 59 131
11 60 68
11 61 258
11 62 253
11 63 226
11 64 31
11 65 2
11 66 215
11 67 210
11 68 4
11 69 122
11 70 111
11 71 61
11 72 26
11 73 99
11 74 37
11 75 231
11 76 151
11 77 254
11 78 223
11 79 87
11 80 163
11 81 93
11 82 27
11 83 148
11 84 256
11 85 207
11 86 178
11 87 246
11 88 77
11 89 221
11 90 109
12 13 140
12 14 123
12 15 150
12 16 116
12 17 219
12 18 130
12 19 217
12 20 116
12 21 90
12 22 53
12 23 14
12 24 93
12 25 177
12 26 121
12 27 260
12 28 61
12 29 20
12 30 78
12 31 233
12 32 72
12 33 248
12 34 156
12 35 176
12 36 91
12 37 164
12 38 130
12 39 125
12 40 7
12 41 182
12 42 32
12 43 127
12 44 267
12 45 151
12 46 24
12 47 205
12 48 68
12 49 203
12 50 193
12 51 112
12 52 181
12 53 86
12 54 172
12 55 115
12 56 142
12 57 119
12 58 193
12 59 52
12 60 165
12 61 97
12 62 178
12 63 52
12 64 68
12 65 250
12 66 44
12 67 169
12 68 249
12 69 100
12 70 126
12 71 149
12 72 36
12 73 41
12 74 228
12 75 153
12 76 168
12 77 170
12 78 194
12 79 78
12 80 237
12 81 142
12 82 269
12 83 209
12 84 117
12 85 48
12 86 212
12 87 175
12 88 132
12 89 265
12 90 134
13 14 117
13 15 189
13 16 156
13 17 234
13 18 226
13 19 231
13 20 89
13 21 150
13 22 222
13 23 204
13 24 148
13 25 155
13 26 14
13 27 103
13 28 67
13 29 221
13 30 255
13 31 204
13 32 123
13 33 213
13 34 158
13 35 75
13 36 241
13 37 220
13 38 133
13 39 72
13 40 206
13 41 116
13 42 201
13 43 150
13 44 162
13 45 152
13 46 168
13 47 239
13 48 234
13 49 44
13 50 171
13 51 44
13 52 84
13 53 34
13 54 66
13 55 248
13 56 244
13 57 159
13 58 178
13 59 23
13 60 99
13 61 215
13 62 37
13 63 46
13 64 184
13 65 162
13 66 69
13 67 62
13 68 36
13 69 32
13 70 53
13 71 64
13 72 52
13 73 232
13 74 134
13 75 69
13 76 32
13 77 93
13 78 111
13 79 248
13 80 75
13 81 222
13 82 59
13 83 207
13 84 69
13 85 136
13 86 27
13 87 97
13 88 216
13 89 111
13 90 186
14 15 130
14 16 117
14 17 203
14 18 110
14 19 218
14 20 109
14 21 92
14 22 14
14 23 101
14 24 86
14 25 54
14 26 225
14 27 3
14 28 223
14 29 267
14 30 62
14 31 50
14 32 190
14 33 101
14 34 33
14 35 139
14 36 17
14 37 215
14 38 132
14 39 177
14 40 110
14 41 205
14 42 187
14 43 14
14 44 200
14 45 245
14 46 32
14 47 131
14 48 158
14 49 51
14 50 129
14 51 244
14 52 208
14 53 78
14 54 267
14 55 230
14 56 43
14 57 258
14 58 209
14 59 182
14 60 4
14 61 246
14 62 92
14 63 108
14 64 55
14 65 223
14 66 164
14 67 70
14 68 242
14 69 103
14 70 127
14 71 204
14 72 165
14 73 4
14 74 138
14 75 126
14 76 172
14 77 151
14 78 79
14 79 56
14 80 218
14 81 195
14 82 70
14 83 73
14 84 23
14 85 147
14 86 232
14 87 120
14 88 134
14 89 206
14 90 84
15 16 73
15 17 52
15 18 187
15 19 254
15 20 81
15 21 97
15 22 160
15 23 20
15 24 145
15 25 60
15 26 98
15 27 62
15 28 120
15 29 200
15 30 249
15 31 96
15 32 137
15 33 218
15 34 181
15 35 136
15 36 60
15 37 252
15 38 56
15 39 113
15 40 153
15 41 85
15 42 209
15 43 93
15 44 60
15 45 142
15 46 142
15 47 180
15 48 83
15 49 150
15 50 37
15 51 167
15 52 205
15 53 232
15 54 115
15 55 147
15 56 183
15 57 10
15 58 131
15 59 254
15 60 192
15 61 194
15 62 223
15 63 56
15 64 57
15 65 187
15 66 134
15 67 115
15 68 136
15 69 265
15 70 124
15 71 107
15 72 207
15 73 65
15 74 131
15 75 236
15 76 198
15 77 40
15 78 124
15 79 145
15 80 232
15 81 169
15 82 114
15 83 107
15 84 220
15 85 151
15 86 136
15 87 12
15 88 94
15 89 223
15 90 222
16 17 242
16 18 86
16 19 173
16 20 125
16 21 145
16 22 143
16 23 138
16 24 8
16 25 51
16 26 41
16 27 190
16 28 239
16 29 232
16 30 148
16 31 21
16 32 0
16 33 152
16 34 267
16 35 113
16 36 149
16 37 197
16 38 84
16 39 138
16 40 175
16 41 227
16 42 70
16 43 44
16 44 77
16 45 56
16 46 80
16 47 0
16 48 209
16 49 43
16 50 167
16 51 87
16 52 14
16 53 17
16 54 186
16 55 230
16 56 245
16 57 149
16 58 22
16 59 25
16 60 253
16 61 106
16 62 184
16 63 235
16 64 26
16 65 50
16 66 148
16 67 247
16 68 46
16 69 250
16 70 161
16 71 81
16 72 41
16 73 25
16 74 213
16 75 110
16 76 120
16 77 261
16 78 213
16 79 252
16 80 187
16 81 113
16 82 86
16 83 90
16 84 106
16 85 12
16 86 186
16 87 90
16 88 210
16 89 44
16 90 35
17 18 0
17 19 186
17 20 88
17 21 217
17 22 39
17 23 206
17 24 87
17 25 226
17 26 170
17 27 123
17 28 202
17 29 142
17 30 102
17 31 171
17 32 124
17 33 137
17 34 246
17 35 80
17 36 74
17 37 38
17 38 172
17 39 230
17 40 31
17 41 174
17 42 25
17 43 147
17 44 106
17 45 119
17 46 50
17 47 119
17 48 97
17 49 28
17 50 156
17 51 59
17 52 52
17 53 8
17 54 254
17 55 261
17 56 226
17 57 203
17 58 149
17 59 123
17 60 180
17 61 93
17 62 164
17 63 73
17 64 244
17 65 42
17 66 203
17 67 42
17 68 76
17 69 166
17 70 27
17 71 159
17 72 106
17 73 35
17 74 135
17 75 238
17 76 196
17 77 145
17 78 197
17 79 230
17 80 186
17 81 75
17 82 262
17 83 117
17 84 106
17 85 9
17 86 180
17 87 64
17 88 265
17 89 90
17 90 220
18 19 101
18 20 192
18 21 76
18 22 2
18 23 13
18 24 12
18 25 132
18 26 206
18 27 42
18 28 257
18 29 55
18 30 198
18 31 228
18 32 261
18 33 69
18 34 146
18 35 229
18 36 42
18 37 24
18 38 225
18 39 143
18 40 204
18 41 213
18 42 18
18 43 175
18 44 23
18 45 29
18 46 198
18 47 162
18 48 259
18 49 235
18 50 148
18 51 15
18 52 266
18 53 99
18 54 53
18 55 104
18 56 155
18 57 173
18 58 212
18 59 245
18 60 0
18 61 74
18 62 59
18 63 262
18 64 206
18 65 61
18 66 9
18 67 141
18 68 233
18 69 222
18 70 170
18 71 167
18 72 73
18 73 214
18 74 129
18 75 161
18 76 16
18 77 26
18 78 20
18 79 189
18 80 57
18 81 107
18 82 207
18 83 233
18 84 216
18 85 87
18 86 186
18 87 181
18 88 51
18 89 182
18 90 262
19 20 9
19 21 123
19 22 213
19 23 117
19 24 231
19 25 35
19 26 55
19 27 151
19 28 264
19 29 215
19 30 9
19 31 55
19 32 219
19 33 47
19 34 196
19 35 146
19 36 50
19 37 201
19 38 239
19 39 47
19 40 202
19 41 53
19 42 258
19 43 7
19 44 209
19 45 204
19 46 235
19 47 227
19 48 23
19 49 62
19 50 49
19 51 86
19 52 194
19 53 56
19 54 117
19 55 243
19 56 14
19 57 100
19 58 229
19 59 222
19 60 245
19 61 204
19 62 63
19 63 224
19 64 259
19 65 12
19 66 208
19 67 101
19 68 53
19 69 74
19 70 188
19 71 52
19 72 87
19 73 250
19 74 194
19 75 46
19 76 268
19 77 67
19 78 245
19 79 221
19 80 221
19 81 213
19 82 264
19 83 110
19 84 62
19 85 102
19 86 29
19 87 219
19 88 184
19 89 153
19 90 174
20 21 21
20 22 216
20 23 158
20 24 127
20 25 124
20 26 269
20 27 145
20 28 188
20 29 264
20 30 10
20 31 165
20 32 188
20 33 69
20 34 195
20 35 144
20 36 87
20 37 175
20 38 255
20 39 155
20 40 192
20 41 249
20 42 159
20 43 256
20 44 223
20 45 28
20 46 195
20 47 137
20 48 203
20 49 3
20 50 47
20 51 225
20 52 202
20 53 129
20 54 83
20 55 245
20 56 47
20 57 28
20 58 12
20 59 40
20 60 106
20 61 38
20 62 143
20 63 40
20 64 232
20 65 208
20 66 265
20 67 40
20 68 219
20 69 93
20 70 31
20 71 261
20 72 93
20 73 73
20 74 128
20 75 125
20 76 148
20 77 137
20 78 52
20 79 203
20 80 168
20 81 224
20 82 184
20 83 170
20 84 206
20 85 183
20 86 120
20 87 149
20 88 175
20 89 240
20 90 116
21 22 196
21 23 104
21 24 58
21 25 225
21 26 32
21 27 163
21 28 45
21 29 39
21 30 178
21 31 92
21 32 221
21 33 13
21 34 116
21 35 257
21 36 176
21 37 170
21 38 96
21 39 93
21 40 61
21 41 237
21 42 243
21 43 35
21 44 37
21 45 171
21 46 122
21 47 255
21 48 84
21 49 120
21 50 179
21 51 252
21 52 92
21 53 245
21 54 163
21 55 192
21 56 49
21 57 143
21 58 59
21 59 49
21 60 77
21 61 34
21 62 114
21 63 8
21 64 37
21 65 43
21 66 138
21 67 154
21 68 48
21 69 143
21 70 54
21 71 155
21 72 196
21 73 187
21 74 129
21 75 48
21 76 197
21 77 128
21 78 259
21 79 150
21 80 89
21 81 228
21 82 269
21 83 130
21 84 30
21 85 95
21 86 126
21 87 112
21 88 209
21 89 219
21 90 218
22 23 22
22 24 84
22 25 182
22 26 247
22 27 7
22 28 148
22 29 149
22 30 55
22 31 170
22 32 226
22 33 166
22 34 139
22 35 0
22 36 240
22 37 86
22 38 162
22 39 61
22 40 170
22 41 87
22 42 139
22 43 0
22 44 91
22 45 121
22 46 19
22 47 53
22 48 205
22 49 165
22 50 3
22 51 238
22 52 194
22 53 109
22 54 207
22 55 154
22 56 69
22 57 174
22 58 231
22 59 89
22 60 172
22 61 152
22 62 19
22 63 85
22 64 143
22 65 142
22 66 66
22 67 0
22 68 80
22 69 159
22 70 183
22 71 232
22 72 54
22 73 67
22 74 23
22 75 216
22 76 81
22 77 235
22 78 241
22 79 29
22 80 188
22 81 100
22 82 193
22 83 160
22 84 109
22 85 237
22 86 206
22 87 212
22 88 169
22 89 95
22 90 18
23 24 40
23 25 143
23 26 7
23 27 224
23 28 139
23 29 68
23 30 60
23 31 4
23 32 193
23 33 237
23 34 110
23 35 111
23 36 177
23 37 110
23 38 192
23 39 100
23 40 219
23 41 48
23 42 66
23 43 13
23 44 61
23 45 226
23 46 126
23 47 81
23 48 142
23 49 161
23 50 214
23 51 4
23 52 105
23 53 82
23 54 178
23 55 125
23 56 2
23 57 254
23 58 228
23 59 168
23 60 192
23 61 40
23 62 118
23 63 56
23 64 14
23 65 150
23 66 136
23 67 10
23 68 268
23 69 9
23 70 40
23 71 7
23 72 231
23 73 260
23 74 149
23 75 57
23 76 62
23 77 59
23 78 149
23 79 170
23 80 97
23 81 247
23 82 128
23 83 3
23 84 114
23 85 88
23 86 226
23 87 267
23 88 189
23 89 254
23 90 252
24 25 51
24 26 215
24 27 75
24 28 159
24 29 257
24 30 56
24 31 168
24 32 213
24 33 242
24 34 198
24 35 250
24 36 20
24 37 144
24 38 110
24 39 194
24 40 106
24 41 192
24 42 249
24 43 114
24 44 125
24 45 241
24 46 51
24 47 245
24 48 154
24 49 170
24 50 50
24 51 115
24 52 162
24 53 64
24 54 75
24 55 132
24 56 95
24 57 110
24 58 100
24 59 264
24 60 159
24 61 222
24 62 61
24 63 7
24 64 158
24 65 223
24 66 9
24 67 1
24 68 197
24 69 153
24 70 77
24 71 90
24 72 218
24 73 100
24 74 219
24 75 260
24 76 235
24 77 93
24 78 136
24 79 89
24 80 209
24 81 8
24 82 112
24 83 56
24 84 18
24 85 63
24 86 160
24 87 115
24 88 116
24 89 71
24 90 40
25 26 242
25 27 240
25 28 138
25 29 67
25 30 141
25 31 74
25 32 195
25 33 221
25 34 114
25 35 237
25 36 245
25 37 199
25 38 46
25 39 9
25 40 45
25 41 116
25 42 191
25 43 152
25 44 74
25 45 208
25 46 54
25 47 2
25 48 263
25 49 242
25 50 180
25 51 47
25 52 44
25 53 111
25 54 115
25 55 35
25 56 87
25 57 36
25 58 61
25 59 5
25 60 25
25 61 101
25 62 100
25 63 259
25 64 175
25 65 117
25 66 87
25 67 162
25 68 188
25 69 218
25 70 137
25 71 5
25 72 143
25 73 100
25 74 94
25 75 174
25 76 114
25 77 60
25 78 66
25 79 71
25 80 260
25 81 40
25 82 201
25 83 21
25 84 60
25 85 263
25 86 91
25 87 8
25 88 64
25 89 139
25 90 103
26 27 37
26 28 30
26 29 182
26 30 150
26 31 70
26 32 143
26 33 74
26 34 143
26 35 49
26 36 215
26 37 55
26 38 86
26 39 10
26 40 199
26 41 205
26 42 149
26 43 19
26 44 262
26 45 264
26 46 267
26 47 149
26 48 9
26 49 258
26 50 245
26 51 169
26 52 192
26 53 233
26 54 268
26 55 69
26 56 179
26 57 131
26 58 91
26 59 91
26 60 261
26 61 169
26 62 25
26 63 54
26 64 29
26 65 210
26 66 126
26 67 77
26 68 122
26 69 184
26 70 66
26 71 194
26 72 108
26 73 39
26 74 102
26 75 169
26 76 246
26 77 185
26 78 23
26 79 40
26 80 141
26 81 49
26 82 2
26 83 64
26 84 255
26 85 81
26 86 184
26 87 71
26 88 56
26 89 137
26 90 3
27 28 190
27 29 215
27 30 258
27 31 212
27 32 2
27 33 164
27 34 258
27 35 20
27 36 139
27 37 178
27 38 198
27 39 145
27 40 264
27 41 260
27 42 196
27 43 24
27 44 226
27 45 175
27 46 45
27 47 21
27 48 223
27 49 161
27 50 69
27 51 37
27 52 226
27 53 108
27 54 219
27 55 202
27 56 75
27 57 142
27 58 253
27 59 38
27 60 143
27 61 139
27 62 96
27 63 8
27 64 221
27 65 163
27 66 76
27 67 201
27 68 239
27 69 102
27 70 145
27 71 169
27 72 211
27 73 105
27 74 70
27 75 134
27 76 184
27 77 96
27 78 126
27 79 229
27 80 13
27 81 150
27 82 165
27 83 174
27 84 107
27 85 262
27 86 188
27 87 186
27 88 64
27 89 243
27 90 226
28 29 84
28 30 41
28 31 36
28 32 154
28 33 191
28 34 19
28 35 52
28 36 49
28 37 165
28 38 180
28 39 199
28 40 207
28 41 216
28 42 259
28 43 212
28 44 29
28 45 218
28 46 194
28 47 141
28 48 29
28 49 56
28 50 204
28 51 219
28 52 27
28 53 167
28 54 103
28 55 71
28 56 258
28 57 170
28 58 62
28 59 216
28 60 199
28 61 30
28 62 236
28 63 233
28 64 5
28 65 263
28 66 0
28 67 233
28 68 133
28 69 161
28 70 200
28 71 176
28 72 151
28 73 252
28 74 79
28 75 246
28 76 12
28 77 265
28 78 156
28 79 171
28 80 102
28 81 226
28 82 224
28 83 88
28 84 119
28 85 240
28 86 73
28 87 73
28 88 151
28 89 75
28 90 185
29 30 46
29 31 255
29 32 93
29 33 92
29 34 35
29 35 23
29 36 39
29 37 31
29 38 185
29 39 135
29 40 202
29 41 257
29 42 46
29 43 9
29 44 254
29 45 129
29 46 7
29 47 110
29 48 211
29 49 105
29 50 120
29 51 28
29 52 121
29 53 73
29 54 40
29 55 192
29 56 151
29 57 95
29 58 192
29 59 241
29 60 263
29 61 103
29 62 262
29 63 151
29 64 170
29 65 154
29 66 155
29 67 103
29 68 98
29 69 120
29 70 9
29 71 94
29 72 155
29 73 84
29 74 111
29 75 263
29 76 55
29 77 50
29 78 225
29 79 62
29 80 210
29 81 179
29 82 226
29 83 33
29 84 173
29 85 87
29 86 240
29 87 74
29 88 101
29 89 234
29 90 202
30 31 29
30 32 183
30 33 8
30 34 142
30 35 183
30 36 36
30 37 143
30 38 28
30 39 86
30 40 90
30 41 211
30 42 95
30 43 158
30 44 70
30 45 177
30 46 205
30 47 178
30 48 33
30 49 244
30 50 49
30 51 232
30 52 21
30 53 116
30 54 137
30 55 233
30 56 223
30 57 12
30 58 196
30 59 86
30 60 145
30 61 111
30 62 231
30 63 88
30 64 115
30 65 108
30 66 202
30 67 100
30 68 227
30 69 1
30 70 158
30 71 11
30 72 226
30 73 35
30 74 133
30 75 263
30 76 22
30 77 210
30 78 15
30 79 146
30 80 262
30 81 111
30 82 119
30 83 211
30 84 52
30 85 207
30 86 55
30 87 101
30 88 33
30 89 86
30 90 124
31 32 202
31 33 134
31 34 263
31 35 124
31 36 55
31 37 249
31 38 79
31 39 174
31 40 33
31 41 128
31 42 85
31 43 213
31 44 256
31 45 206
31 46 112
31 47 117
31 48 199
31 49 158
31 50 217
31 51 53
31 52 237
31 53 80
31 54 261
31 55 14
31 56 203
31 57 143
31 58 68
31 59 28
31 60 122
31 61 225
31 62 200
31 63 65
31 64 0
31 65 59
31 66 238
31 67 91
31 68 154
31 69 226
31 70 238
31 71 58
31 72 123
31 73 204
31 74 240
31 75 61
31 76 148
31 77 151
31 78 118
31 79 223
31 80 98
31 81 6
31 82 193
31 83 162
31 84 78
31 85 65
31 86 24
31 87 136
31 88 138
31 89 7
31 90 87
32 33 132
32 34 218
32 35 16
32 36 34
32 37 250
32 38 153
32 39 53
32 40 258
32 41 149
32 42 112
32 43 77
32 44 163
32 45 52
32 46 29
32 47 116
32 48 8
32 49 257
32 50 18
32 51 197
32 52 79
32 53 196
32 54 243
32 55 144
32 56 255
32 57 262
32 58 256
32 59 146
32 60 260
32 61 254
32 62 84
32 63 254
32 64 81
32 65 64
32 66 89
32 67 131
32 68 134
32 69 203
32 70 216
32 71 160
32 72 241
32 73 159
32 74 73
32 75 21
32 76 149
32 77 140
32 78 49
32 79 116
32 80 266
32 81 12
32 82 220
32 83 190
32 84 225
32 85 76
32 86 100
32 87 219
32 88 196
32 89 155
32 90 258
33 34 248
33 35 109
33 36 237
33 37 145
33 38 232
33 39 127
33 40 192
33 41 17
33 42 252
33 43 83
33 44 13
33 45 226
33 46 208
33 47 183
33 48 115
33 49 163
33 50 89
33 51 59
33 52 213
33 53 208
33 54 180
33 55 156
33 56 159
33 57 258
33 58 131
33 59 119
33 60 206
33 61 100
33 62 130
33 63 131
33 64 48
33 65 190
33 66 47
33 67 205
33 68 77
33 69 18
33 70 113
33 71 169
33 72 106
33 73 209
33 74 91
33 75 255
33 76 143
33 77 266
33 78 20
33 79 242
33 80 269
33 81 31
33 82 139
33 83 243
33 84 60
33 85 5
33 86 203
33 87 214
33 88 211
33 89 258
33 90 52
34 35 104
34 36 239
34 37 152
34 38 53
34 39 259
34 40 32
34 41 234
34 42 122
34 43 75
34 44 40
34 45 5
34 46 133
34 47 267
34 48 50
34 49 54
34 50 30
34 51 7
34 52 258
34 53 104
34 54 7
34 55 85
34 56 226
34 57 173
34 58 216
34 59 71
34 60 177
34 61 150
34 62 240
34 63 240
34 64 260
34 65 121
34 66 241
34 67 57
34 68 250
34 69 219
34 70 243
34 71 159
34 72 263
34 73 19
34 74 166
34 75 242
34 76 251
34 77 206
34 78 186
34 79 26
34 80 62
34 81 203
34 82 216
34 83 113
34 84 135
34 85 268
34 86 213
34 87 81
34 88 129
34 89 185
34 90 190
35 36 52
35 37 261
35 38 242
35 39 31
35 40 229
35 41 78
35 42 46
35 43 205
35 44 54
35 45 246
35 46 163
35 47 245
35 48 126
35 49 186
35 50 172
35 51 247
35 52 4
35 53 62
35 54 21
35 55 250
35 56 77
35 57 80
35 58 137
35 59 55
35 60 249
35 61 149
35 62 181
35 63 17
35 64 31
35 65 199
35 66 101
35 67 70
35 68 42
35 69 239
35 70 122
35 71 76
35 72 108
35 73 41
35 74 11
35 75 40
35 76 148
35 77 154
35 78 123
35 79 52
35 80 119
35 81 218
35 82 158
35 83 193
35 84 27
35 85 113
35 86 124
35 87 143
35 88 90
35 89 194
35 90 37
36 37 224
36 38 21
36 39 193
36 40 146
36 41 197
36 42 135
36 43 173
36 44 137
36 45 107
36 46 161
36 47 141
36 48 23
36 49 125
36 50 102
36 51 249
36 52 7
36 53 221
36 54 97
36 55 177
36 56 269
36 57 138
36 58 42
36 59 212
36 60 179
36 61 62
36 62 134
36 63 109
36 64 122
36 65 151
36 66 148
36 67 167
36 68 65
36 69 211
36 70 59
36 71 58
36 72 218
36 73 197
36 74 102
36 75 201
36 76 138
36 77 188
36 78 201
36 79 188
36 80 239
36 81 254
36 82 202
36 83 106
36 84 253
36 85 16
36 86 99
36 87 195
36 88 156
36 89 107
36 90 52
37 38 184
37 39 129
37 40 32
37 41 214
37 42 210
37 43 23
37 44 180
37 45 75
37 46 20
37 47 39
37 48 240
37 49 263
37 50 12
37 51 77
37 52 156
37 53 191
37 54 32
37 55 149
37 56 115
37 57 189
37 58 210
37 59 38
37 60 211
37 61 181
37 62 81
37 63 27
37 64 31
37 65 232
37 66 257
37 67 240
37 68 241
37 69 246
37 70 108
37 71 207
37 72 259
37 73 163
37 74 39
37 75 151
37 76 250
37 77 205
37 78 70
37 79 183
37 80 56
37 81 89
37 82 245
37 83 134
37 84 96
37 85 156
37 86 115
37 87 81
37 88 196
37 89 120
37 90 202
38 39 150
38 40 115
38 41 41
38 42 58
38 43 177
38 44 61
38 45 251
38 46 47
38 47 6
38 48 61
38 49 192
38 50 79
38 51 243
38 52 70
38 53 175
38 54 65
38 55 230
38 56 197
38 57 130
38 58 102
38 59 145
38 60 109
38 61 268
38 62 2
38 63 228
38 64 156
38 65 147
38 66 34
38 67 191
38 68 115
38 69 102
38 70 7
38 71 132
38 72 43
38 73 155
38 74 148
38 75 246
38 76 53
38 77 181
38 78 18
38 79 259
38 80 235
38 81 259
38 82 134
38 83 256
38 84 195
38 85 68
38 86 140
38 87 122
38 88 119
38 89 138
38 90 232
39 40 256
39 41 109
39 42 108
39 43 217
39 44 12
39 45 236
39 46 2
39 47 61
39 48 88
39 49 222
39 50 177
39 51 122
39 52 174
39 53 40
39 54 243
39 55 128
39 56 188
39 57 10
39 58 145
39 59 119
39 60 167
39 61 176
39 62 102
39 63 110
39 64 120
39 65 44
39 66 193
39 67 228
39 68 51
39 69 41
39 70 61
39 71 137
39 72 179
39 73 132
39 74 128
39 75 39
39 76 15
39 77 102
39 78 158
39 79 137
39 80 170
39 81 12
39 82 209
39 83 260
39 84 244
39 85 109
39 86 263
39 87 119
39 88 23
39 89 138
39 90 200
40 41 196
40 42 231
40 43 222
40 44 232
40 45 13
40 46 12
40 47 47
40 48 254
40 49 247
40 50 135
40 51 146
40 52 262
40 53 113
40 54 51
40 55 85
40 56 49
40 57 200
40 58 238
40 59 0
40 60 81
40 61 254
40 62 1
40 63 142
40 64 174
40 65 34
40 66 106
40 67 135
40 68 25
40 69 57
40 70 264
40 71 238
40 72 143
40 73 184
40 74 8
40 75 89
40 76 167
40 77 180
40 78 20
40 79 234
40 80 145
40 81 123
40 82 20
40 83 174
40 84 157
40 85 120
40 86 16
40 87 34
40 88 42
40 89 145
40 90 198
41 42 182
41 43 45
41 44 212
41 45 64
41 46 110
41 47 45
41 48 228
41 49 17
41 50 58
41 51 125
41 52 133
41 53 190
41 54 47
41 55 173
41 56 243
41 57 238
41 58 235
41 59 199
41 60 110
41 61 117
41 62 105
41 63 231
41 64 207
41 65 159
41 66 225
41 67 242
41 68 200
41 69 176
41 70 64
41 71 237
41 72 151
41 73 147
41 74 211
41 75 146
41 76 124
41 77 196
41 78 267
41 79 230
41 80 103
41 81 41
41 82 82
41 83 16
41 84 115
41 85 174
41 86 105
41 87 208
41 88 244
41 89 192
41 90 4
42 43 132
42 44 266
42 45 78
42 46 219
42 47 114
42 48 44
42 49 45
42 50 109
42 51 106
42 52 234
42 53 49
42 54 216
42 55 97
42 56 249
42 57 73
42 58 147
42 59 199
42 60 65
42 61 14
42 62 206
42 63 262
42 64 135
42 65 131
42 66 62
42 67 142
42 68 152
42 69 265
42 70 78
42 71 262
42 72 269
42 73 81
42 74 18
42 75 189
42 76 49
42 77 71
42 78 20
42 79 15
42 80 81
42 81 43
42 82 85
42 83 219
42 84 83
42 85 269
42 86 12
42 87 173
42 88 28
42 89 231
42 90 8
43 44 146
43 45 184
43 46 38
43 47 65
43 48 166
43 49 251
43 50 222
43 51 162
43 52 166
43 53 183
43 54 162
43 55 57
43 56 10
43 57 93
43 58 33
43 59 67
43 60 73
43 61 193
43 62 78
43 63 2
43 64 164
43 65 71
43 66 251
43 67 11
43 68 41
43 69 57
43 70 73
43 71 104
43 72 112
43 73 180
43 74 4
43 75 135
43 76 196
43 77 16
43 78 208
43 79 257
43 80 112
43 81 155
43 82 95
43 83 65
43 84 205
43 85 160
43 86 151
43 87 9
43 88 100
43 89 171
43 90 74
44 45 209
44 46 120
44 47 52
44 48 60
44 49 96
44 50 84
44 51 227
44 52 126
44 53 55
44 54 58
44 55 52
44 56 157
44 57 107
44 58 29
44 59 49
44 60 248
44 61 259
44 62 225
44 63 45
44 64 158
44 65 98
44 66 206
44 67 178
44 68 182
44 69 46
44 70 138
44 71 216
44 72 66
44 73 202
44 74 116
44 75 244
44 76 200
44 77 248
44 78 4
44 79 248
44 80 56
44 81 155
44 82 14
44 83 136
44 84 120
44 85 205
44 86 215
44 87 189
44 88 74
44 89 262
44 90 261
45 46 94
45 47 73
45 48 13
45 49 172
45 50 172
45 51 205
45 52 30
45 53 15
45 54 140
45 55 107
45 56 178
45 57 188
45 58 133
45 59 110
45 60 127
45 61 247
45 62 0
45 63 237
45 64 87
45 65 109
45 66 159
45 67 2
45 68 37
45 69 266
45 70 110
45 71 266
45 72 2
45 73 96
45 74 243
45 75 161
45 76 15
45 77 250
45 78 20
45 79 91
45 80 32
45 81 23
45 82 242
45 83 33
45 84 178
45 85 41
45 86 222
45 87 9
45 88 263
45 89 78
45 90 111
46 47 90
46 48 109
46 49 216
46 50 160
46 51 94
46 52 106
46 53 191
46 54 183
46 55 231
46 56 220
46 57 267
46 58 243
46 59 15
46 60 30
46 61 90
46 62 218
46 63 151
46 64 158
46 65 69
46 66 151
46 67 198
46 68 118
46 69 197
46 70 238
46 71 246
46 72 193
46 73 129
46 74 267
46 75 247
46 76 38
46 77 49
46 78 174
46 79 84
46 80 75
46 81 37
46 82 220
46 83 167
46 84 116
46 85 175
46 86 43
46 87 101
46 88 37
46 89 65
46 90 181
47 48 86
47 49 136
47 50 194
47 51 139
47 52 264
47 53 182
47 54 93
47 55 2
47 56 203
47 57 30
47 58 53
47 59 181
47 60 32
47 61 60
47 62 191
47 63 38
47 64 55
47 65 208
47 66 84
47 67 228
47 68 8
47 69 244
47 70 109
47 71 132
47 72 153
47 73 106
47 74 214
47 75 28
47 76 84
47 77 2
47 78 185
47 79 188
47 80 165
47 81 143
47 82 256
47 83 44
47 84 56
47 85 249
47 86 177
47 87 54
47 88 85
47 89 130
47 90 16
48 49 34
48 50 101
48 51 166
48 52 142
48 53 231
48 54 154
48 55 96
48 56 31
48 57 66
48 58 57
48 59 257
48 60 190
48 61 20
48 62 85
48 63 137
48 64 46
48 65 13
48 66 84
48 67 32
48 68 246
48 69 123
48 70 120
48 71 117
48 72 225
48 73 39
48 74 192
48 75 132
48 76 13
48 77 257
48 78 119
48 79 81
48 80 51
48 81 30
48 82 246
48 83 157
48 84 67
48 85 206
48 86 21
48 87 249
48 88 225
48 89 181
48 90 67
49 50 221
49 51 168
49 52 214
49 53 53
49 54 2
49 55 129
49 56 116
49 57 260
49 58 103
49 59 220
49 60 205
49 61 20
49 62 248
49 63 207
49 64 138
49 65 229
49 66 121
49 67 82
49 68 173
49 69 98
49 70 102
49 71 173
49 72 83
49 73 214
49 74 194
49 75 102
49 76 187
49 77 128
49 78 43
49 79 17
49 80 208
49 81 143
49 82 262
49 83 166
49 84 139
49 85 149
49 86 192
49 87 172
49 88 130
49 89 133
49 90 57
50 51 244
50 52 192
50 53 121
50 54 61
50 55 260
50 56 168
50 57 162
50 58 195
50 59 9
50 60 211
50 61 259
50 62 269
50 63 2
50 64 165
50 65 131
50 66 137
50 67 148
50 68 171
50 69 102
50 70 207
50 71 123
50 72 206
50 73 21
50 74 196
50 75 207
50 76 251
50 77 125
50 78 48
50 79 48
50 80 227
50 81 98
50 82 90
50 83 152
50 84 106
50 85 180
50 86 128
50 87 25
50 88 20
50 89 153
50 90 264
51 52 45
51 53 79
51 54 225
51 55 223
51 56 68
51 57 71
51 58 181
51 59 164
51 60 76
51 61 168
51 62 88
51 63 48
51 64 61
51 65 31
51 66 155
51 67 77
51 68 106
51 69 263
51 70 3
51 71 224
51 72 166
51 73 103
51 74 181
51 75 179
51 76 208
51 77 148
51 78 111
51 79 52
51 80 15
51 81 243
51 82 248
51 83 85
51 84 27
51 85 135
51 86 225
51 87 37
51 88 116
51 89 179
51 90 265
52 53 172
52 54 117
52 55 22
52 56 93
52 57 238
52 58 182
52 59 169
52 60 81
52 61 45
52 62 44
52 63 118
52 64 188
52 65 262
52 66 199
52 67 112
52 68 52
52 69 25
52 70 22
52 71 95
52 72 144
52 73 35
52 74 109
52 75 143
52 76 12
52 77 92
52 78 181
52 79 138
52 80 38
52 81 14
52 82 265
52 83 41
52 84 190
52 85 246
52 86 234
52 87 82
52 88 171
52 89 245
52 90 73
53 54 210
53 55 134
53 56 204
53 57 216
53 58 247
53 59 191
53 60 170
53 61 10
53 62 74
53 63 110
53 64 61
53 65 103
53 66 208
53 67 92
53 68 208
53 69 23
53 70 199
53 71 63
53 72 58
53 73 86
53 74 152
53 75 158
53 76 174
53 77 33
53 78 80
53 79 52
53 80 262
53 81 28
53 82 2
53 83 65
53 84 75
53 85 242
53 86 173
53 87 220
53 88 0
53 89 83
53 90 190
54 55 211
54 56 236
54 57 45
54 58 195
54 59 230
54 60 190
54 61 215
54 62 112
54 63 180
54 64 165
54 65 110
54 66 236
54 67 268
54 68 145
54 69 125
54 70 50
54 71 114
54 72 128
54 73 245
54 74 56
54 75 91
54 76 1
54 77 35
54 78 114
54 79 64
54 80 190
54 81 263
54 82 208
54 83 5
54 84 114
54 85 7
54 86 120
54 87 115
54 88 196
54 89 20
54 90 122
55 56 218
55 57 53
55 58 241
55 59 5
55 60 140
55 61 0
55 62 95
55 63 64
55 64 255
55 65 105
55 66 19
55 67 228
55 68 35
55 69 244
55 70 241
55 71 16
55 72 194
55 73 63
55 74 25
55 75 240
55 76 56
55 77 119
55 78 170
55 79 10
55 80 42
55 81 135
55 82 159
55 83 75
55 84 104
55 85 114
55 86 81
55 87 210
55 88 85
55 89 11
55 90 266
56 57 184
56 58 65
56 59 217
56 60 85
56 61 62
56 62 80
56 63 184
56 64 142
56 65 267
56 66 240
56 67 209
56 68 186
56 69 197
56 70 100
56 71 239
56 72 169
56 73 18
56 74 263
56 75 63
56 76 207
56 77 17
56 78 91
56 79 95
56 80 17
56 81 92
56 82 1
56 83 193
56 84 113
56 85 112
56 86 30
56 87 53
56 88 29
56 89 229
56 90 134
57 58 112
57 59 25
57 60 118
57 61 244
57 62 55
57 63 123
57 64 105
57 65 101
57 66 64
57 67 105
57 68 7
57 69 111
57 70 208
57 71 179
57 72 58
57 73 70
57 74 226
57 75 60
57 76 49
57 77 143
57 78 80
57 79 166
57 80 133
57 81 132
57 82 78
57 83 262
57 84 253
57 85 138
57 86 248
57 87 178
57 88 99
57 89 237
57 90 16
58 59 24
58 60 68
58 61 269
58 62 14
58 63 0
58 64 214
58 65 133
58 66 76
58 67 35
58 68 114
58 69 227
58 70 83
58 71 265
58 72 135
58 73 192
58 74 27
58 75 199
58 76 77
58 77 223
58 78 197
58 79 177
58 80 164
58 81 155
58 82 142
58 83 4
58 84 64
58 85 138
58 86 220
58 87 182
58 88 49
58 89 101
58 90 139
59 60 5
59 61 54
59 62 64
59 63 139
59 64 124
59 65 250
59 66 9
59 67 79
59 68 99
59 69 114
59 70 4
59 71 13
59 72 117
59 73 260
59 74 246
59 75 189
59 76 240
59 77 89
59 78 174
59 79 27
59 80 72
59 81 138
59 82 34
59 83 204
59 84 41
59 85 188
59 86 265
59 87 57
59 88 138
59 89 64
59 90 28
60 61 162
60 62 83
60 63 198
60 64 26
60 65 217
60 66 99
60 67 232
60 68 59
60 69 53
60 70 191
60 71 174
60 72 19
60 73 132
60 74 6
60 75 27
60 76 40
60 77 218
60 78 213
60 79 186
60 80 230
60 81 188
60 82 26
60 83 215
60 84 133
60 85 264
60 86 42
60 87 214
60 88 0
60 89 50
60 90 46
61 62 30
61 63 89
61 64 227
61 65 199
61 66 41
61 67 64
61 68 67
61 69 50
61 70 116
61 71 136
61 72 264
61 73 188
61 74 161
61 75 231
61 76 0
61 77 247
61 78 212
61 79 14
61 80 82
61 81 227
61 82 31
61 83 50
61 84 238
61 85 166
61 86 182
61 87 127
61 88 163
61 89 61
61 90 139
62 63 224
62 64 149
62 65 106
62 66 181
62 67 198
62 68 182
62 69 129
62 70 171
62 71 219
62 72 249
62 73 58
62 74 167
62 75 159
62 76 12
62 77 242
62 78 85
62 79 69
62 80 72
62 81 220
62 82 122
62 83 266
62 84 32
62 85 93
62 86 130
62 87 64
62 88 227
62 89 123
62 90 29
63 64 96
63 65 102
63 66 28
63 67 28
63 68 155
63 69 63
63 70 62
63 71 178
63 72 125
63 73 29
63 74 153
63 75 52
63 76 24
63 77 104
63 78 207
63 79 30
63 80 98
63 81 34
63 82 23
63 83 89
63 84 233
63 85 56
63 86 128
63 87 210
63 88 141
63 89 95
63 90 200
64 65 259
64 66 131
64 67 131
64 68 177
64 69 29
64 70 180
64 71 5
64 72 159
64 73 212
64 74 146
64 75 111
64 76 202
64 77 118
64 78 99
64 79 248
64 80 244
64 81 44
64 82 169
64 83 80
64 84 113
64 85 200
64 86 259
64 87 50
64 88 44
64 89 82
64 90 211
65 66 17
65 67 179
65 68 19
65 69 240
65 70 155
65 71 190
65 72 62
65 73 82
65 74 197
65 75 103
65 76 220
65 77 213
65 78 262
65 79 175
65 80 158
65 81 221
65 82 250
65 83 47
65 84 7
65 85 122
65 86 110
65 87 238
65 88 234
65 89 208
65 90 48
66 67 126
66 68 88
66 69 177
66 70 251
66 71 215
66 72 260
66 73 258
66 74 168
66 75 99
66 76 99
66 77 106
66 78 228
66 79 71
66 80 239
66 81 33
66 82 229
66 83 109
66 84 51
66 85 56
66 86 65
66 87 5
66 88 8
66 89 82
66 90 239
67 68 262
67 69 23
67 70 229
67 71 24
67 72 60
67 73 179
67 74 244
67 75 182
67 76 246
67 77 245
67 78 118
67 79 103
67 80 223
67 81 14
67 82 86
67 83 141
67 84 208
67 85 233
67 86 237
67 87 71
67 88 75
67 89 79
67 90 221
68 69 179
68 70 71
68 71 211
68 72 132
68 73 198
68 74 184
68 75 88
68 76 51
68 77 196
68 78 226
68 79 268
68 80 134
68 81 231
68 82 186
68 83 264
68 84 242
68 85 209
68 86 28
68 87 180
68 88 93
68 89 173
68 90 106
69 70 1
69 71 208
69 72 221
69 73 83
69 74 118
69 75 187
69 76 6
69 77 230
69 78 129
69 79 196
69 80 227
69 81 250
69 82 219
69 83 176
69 84 56
69 85 4
69 86 88
69 87 114
69 88 157
69 89 3
69 90 138
70 71 51
70 72 267
70 73 250
70 74 177
70 75 242
70 76 253
70 77 152
70 78 12
70 79 161
70 80 153
70 81 192
70 82 187
70 83 191
70 84 49
70 85 124
70 86 120
70 87 119
70 88 75
70 89 103
70 90 4
71 72 160
71 73 80
71 74 269
71 75 177
71 76 32
71 77 187
71 78 25
71 79 154
71 80 28
71 81 63
71 82 53
71 83 117
71 84 75
71 85 58
71 86 3
71 87 191
71 88 87
71 89 103
71 90 118
72 73 214
72 74 36
72 75 264
72 76 205
72 77 172
72 78 269
72 79 33
72 80 16
72 81 187
72 82 137
72 83 223
72 84 76
72 85 25
72 86 90
72 87 163
72 88 16
72 89 186
72 90 170
73 74 80
73 75 179
73 76 207
73 77 103
73 78 140
73 79 156
73 80 250
73 81 18
73 82 108
73 83 196
73 84 7
73 85 14
73 86 219
73 87 87
73 88 8
73 89 76
73 90 43
74 75 70
74 76 97
74 77 203
74 78 209
74 79 49
74 80 257
74 81 12
74 82 82
74 83 126
74 84 192
74 85 214
74 86 166
74 87 241
74 88 92
74 89 266
74 90 132
75 76 193
75 77 47
75 78 152
75 79 58
75 80 163
75 81 163
75 82 77
75 83 66
75 84 136
75 85 208
75 86 109
75 87 100
75 88 23
75 89 145
75 90 9
76 77 237
76 78 101
76 79 117
76 80 102
76 81 176
76 82 218
76 83 175
76 84 100
76 85 116
76 86 88
76 87 93
76 88 224
76 89 143
76 90 141
77 78 69
77 79 141
77 80 24
77 81 54
77 82 115
77 83 231
77 84 123
77 85 5
77 86 265
77 87 62
77 88 21
77 89 102
77 90 240
78 79 265
78 80 120
78 81 252
78 82 263
78 83 247
78 84 176
78 85 143
78 86 182
78 87 208
78 88 123
78 89 111
78 90 241
79 80 71
79 81 236
79 82 85
79 83 216
79 84 143
79 85 37
79 86 125
79 87 228
79 88 186
79 89 147
79 90 98
80 81 158
80 82 251
80 83 92
80 84 123
80 85 32
80 86 39
80 87 127
80 88 237
80 89 140
80 90 178
81 82 107
81 83 201
81 84 27
81 85 67
81 86 215
81 87 0
81 88 132
81 89 180
81 90 245
82 83 81
82 84 93
82 85 66
82 86 61
82 87 220
82 88 93
82 89 59
82 90 257
83 84 29
83 85 187
83 86 184
83 87 4
83 88 65
83 89 182
83 90 187
84 85 78
84 86 269
84 87 56
84 88 228
84 89 156
84 90 212
85 86 78
85 87 167
85 88 52
85 89 159
85 90 94
86 87 220
86 88 129
86 89 23
86 90 79
87 88 12
87 89 196
87 90 76
88 89 26
88 90 186
89 90 150
